#---------------------------Simulation parameters---------------------------
dimension 3
units           real
atom_style      full
pair_style 		lj/cut/coul/cut 10
bond_style      harmonic
angle_style     harmonic
dihedral_style  harmonic
improper_style  umbrella

#---------------------------Processors----------------------------------------
processors * * 1 # Use a NxNx1 domain decomposition to speed simulations up.
#---------------------------Define boundaries-----------------------------------
boundary p p mm

#--------------------------Create simulation--------------------------------
region simulation_box block -29.372 29.372 -29.66 29.66 0 60
create_box 8 simulation_box bond/types 12 angle/types 4 dihedral/types 22 improper/types 3 extra/bond/per/atom 6 extra/angle/per/atom 6 extra/dihedral/per/atom 14 extra/improper/per/atom 2 extra/special/per/atom 7

#---------------------------Fix papreca---------------------------
fix papreca all papreca

#--------------------------Create surface atoms------------
lattice fcc 2.866 origin 0.0 0.0 0.0 orient x 1 -1 0 orient y 0 0 -2 orient z 1 1 0 #Miller indices set so that the z-axis is collinear to the 1 1 0 crystallographic direction (this enables growth on FCC 110)
region substrate block -29 29 -29 29 0.0 2.02657 units box
create_atoms 1 region substrate
#---------------------------Atom masses-----------------------------------
mass 1   55.8450 #Fe
mass 2   12.0110 #C_3
mass 3   12.0110 #C_R
mass 4   15.9994 #O (singly-bonded)
mass 5   30.9738 #P
mass 6   15.9994 #O (doubly-bonded)
mass 7    1.0079 #H
mass 8   55.8450 #Fe

#----------------------Pair coeffs -------------------------
pair_coeff	1	1	0.055	4.04468	10
pair_coeff	2	2	0.0951	3.47299	10
pair_coeff	3	3	0.0951	3.47299	10
pair_coeff	4	4	0.0957	3.03315	10
pair_coeff	5	5	0.32	3.69723	10
pair_coeff	6	6	0.0957 3.03315 10
pair_coeff	7	7	0.0152	2.84642	10
pair_coeff	8	8	0.055	4.04468	10

pair_modify mix geometric
#---------------------------Bond coeffs-----------------------------------
bond_coeff   1    0.00000000      0.000000    #DUMMY TYPE USED FOR BOND DELETIONS
bond_coeff   2    350.000000      1.460000    # C_3 C_R
bond_coeff   3    350.000000      1.090000    # C_3 H_
bond_coeff   4    525.000000      1.390000    # C_R C_R 
bond_coeff   5    350.000000      1.020000    # C_R H_
bond_coeff   6    350.000000      1.350000    # C_R O_3  (USED IN KMC BREAKS)
bond_coeff   7    350.000000      1.540000    # O_3 P_3  (USED IN KMC BREAKS).
bond_coeff   8    150.000000      1.440000    # P-O BOND (USED IN KMC FORMS).
bond_coeff   9    350.000000      1.540000    # P=O BOND (USED IN KMC FORMS).
bond_coeff   10   350.000000      1.935000    # substrate Fe-O/Fe=O BOND (USED IN KMC FORMS).
bond_coeff   11   350.000000      1.935000    # film Fe-O/Fe=O BOND (USED IN KMC FORMS).
bond_coeff   12   500.000000      1.516600    # O_2 O_2 bond (USED IN KMC FORMS). 500.000 is just a very stiff value (indicative of the stability of the O-O bond) and 1.5166 is half the LJ sigma
#----------------------Special bonds------------------------- 
special_bonds lj 1e-100 1.0 1.0 coul 1e-100 1.0 1.0 #1e-100 is used to force the inclusion of first order bonded neighbors in neib list (does not affect computation)
#---------------------------Angle coeffs-----------------------------------
angle_coeff   1     50.000000    109.471000    # X C_3 X 
angle_coeff   2     50.000000    120.000000    # X C_R X 
angle_coeff   3     50.000000    104.510000    # X O_3 X 
angle_coeff   4     50.000000    93.300000    # X P_3 X 
#---------------------------Dihedral coeffs-----------------------------------
dihedral_coeff   1      0.166667    1   3   # X C_3 C_R X
dihedral_coeff   2      3.125000   -1   2   # X C_R C_R X
dihedral_coeff   3      3.125000   -1   2   # X C_R C_R X
dihedral_coeff   4      3.125000   -1   2   # X C_R C_R X
dihedral_coeff   5      3.125000   -1   2   # X C_R C_R X
dihedral_coeff   6      3.125000   -1   2   # X C_R C_R X
dihedral_coeff   7      3.125000   -1   2   # X C_R C_R X
dihedral_coeff   8      3.125000   -1   2   # X C_R C_R X
dihedral_coeff   9      3.125000   -1   2   # X C_R C_R X
dihedral_coeff  10      3.125000   -1   2   # X C_R C_R X
dihedral_coeff  11      0.166667   -1   2   # X C_R O_3 X
dihedral_coeff  12      0.111111    1   3   # X O_3 P_3 X
dihedral_coeff  13      0.111111    1   3   # X O_3 P_3 X
dihedral_coeff  14      0.111111    1   3   # X P_3 O_3 X
dihedral_coeff  15      0.111111    1   3   # X P_3 O_3 X
dihedral_coeff  16      0.166667   -1   2   # X O_3 C_R X
dihedral_coeff  17      3.125000   -1   2   # X C_R C_R X
dihedral_coeff  18      3.125000   -1   2   # X C_R C_R X
dihedral_coeff  19      3.125000   -1   2   # X C_R C_R X
dihedral_coeff  20      3.125000   -1   2   # X C_R C_R X
dihedral_coeff  21      3.125000   -1   2   # X C_R C_R X
dihedral_coeff  22      0.166667    1   3   # X C_R C_3 X
#---------------------------Improper coeffs-----------------------------------
improper_coeff   2    20.000000     0.000000    #  C_R X X X 
improper_coeff   1    0.000000      0.000000    #  C_3 X X X 
improper_coeff   3    0.000000      0.000000    #  P_3 X X X


#----------------------Define Molecule Template(s)-------------------------
molecule mmmTCP ./TCP.in
#----------------------Define group and neib/charge interactions-------------------------
neighbor        2 bin
neigh_modify    every 1 delay 0 check yes

group fluid type 2:8 #GROUP FLUID HAS TO BE DEFINED FOR APRECAT RUNS

group frozen type 1 #GROUP FROZEN HAS TO BE DEFINED FOR APRECAT RUNS
fix freeze_atoms frozen setforce 0.0 0.0 0.0 #Fix surface atoms
#----------------------Charge equilibration-------------------------
fix qeq_point all qeq/point 1 10 1.0e-6 100 ./param.qeq warn yes

#----------------------Thermostat-------------------------
fix thermostat fluid nvt temp 528.15 528.15 50

#----------------Set Timestep-------------------------------
timestep    	0.5

#----------------Screen Outputs-------------------------------
compute fluid_temp fluid temp

thermo_style custom step c_fluid_temp etotal ke pe ecoul vol press enthalpy
thermo_modify warn always
thermo 200

#----------------------File Outputs-------------------------  
#dump 1 all custom 100 lammps_full.dat id mol type q x y z vx vy vz proc
#dump_modify 1 sort id

dump 2 all xyz 5000 phosphates.xyz
dump_modify 2 element Fe C C O P O H Fe2 first yes

compute bondsinfo all property/local btype batom1 batom2
dump 3 all local 5000 bonds.log index c_bondsinfo[1] c_bondsinfo[2] c_bondsinfo[3]

#----------------------Define minimization style-------------------------
min_style cg

#----------First trajectory to equilibrate substrate charges-------------
run 10000
