#---------------------------Simulation parameters---------------------------
dimension 3
units           real
atom_style      full
pair_style 		lj/cut 10
bond_style      harmonic

#---------------------------Processors----------------------------------------
processors * * 1
#---------------------------Define boundaries-----------------------------------
boundary p p p

#--------------------------Create simulation--------------------------------
region simulation_box block -50 50 -50 50 -50 50
create_box 2 simulation_box bond/types 2 extra/bond/per/atom 2 extra/special/per/atom 6

#--------------------------PAPRECA fix--------------------------------
fix papreca all papreca

#---------------------------Atom masses-----------------------------------
mass 1   15.9994
mass 2   30.9738

#--------------------------Create atoms------------
create_atoms 1 single 0.0 0.0 0.0
create_atoms 2 single -2.5 0.0 0.0
create_atoms 1 single -5.0 0.0 0.0
create_atoms 2 single 2.5 0.0 0.0
create_atoms 1 single 5.0 0.0 0.0
#----------------------Pair coeffs -------------------------
pair_coeff 1 1 0.0957 3.03315 10.0
 
pair_coeff 2 2 0.32 3.69723 10.0

pair_modify mix geometric
#---------------------------Bond coeffs-----------------------------------
bond_coeff   1    0.00000000      0.000000    #DUMMY TYPE USED FOR BOND DELETIONS.
bond_coeff   2    350.000000      3    # type1 - type2 bond (USED IN KMC BREAKS/FORMS).

#--------------------------Create bonds--------------------
group atoms1 type 1
group atoms2 type 2

create_bonds many atoms1 atoms2 2 2.4 2.6
#----------------------Define group and neib/charge interactions-------------------------
neighbor        2 bin
neigh_modify    every 1 delay 0 check yes

group fluid type 1 2
#----------------Set Timestep-------------------------------
timestep    	1.0e-100

#----------------Screen Outputs-------------------------------
compute fluid_temp fluid temp

thermo_style custom step c_fluid_temp etotal ke pe ecoul vol press enthalpy
thermo_modify warn always
thermo 1
#----------------------File Outputs-------------------------   
dump 1 all xyz 1 traj.xyz

compute bondsinfo all property/local btype batom1 batom2
dump 2 all local 1 bonds_full.log index c_bondsinfo[1] c_bondsinfo[2] c_bondsinfo[3]

